% medium data example 

% task specification
task = [D, D, I, T, T];

% agent specification
noAgents = 3; % two robots 

capabilities = [{I,T}, {D}, {}];
isCart = [false, false, true];

isConnected = [| false, false, false 
               | true,  true, true 
               | false, true, true |];